0000000000000000
0001111111000000
0011111111110000
0011111111111000
0011111111111100
0011100001111100
0000000000111100
0000000000011110
0000000000011110
0000000000011100
0000000000111100
0001111111111100
0001111111111100
0001111111111100
0000000001111100
0000000000111000
